words_hard_train/6841.qaiger
aag 63 16 0 1 47
2
4
12
14
18
22
26
30
34
48
56
62
66
70
78
86
127
6 2 4
8 3 5
10 7 9
16 13 15
20 16 19
24 20 23
28 24 27
32 28 31
36 32 35
38 10 37
40 11 36
42 39 41
44 33 34
46 45 37
50 47 49
52 29 30
54 53 33
58 55 57
60 51 59
64 63 26
68 66 15
72 70 23
74 69 73
76 74 21
80 79 18
82 67 14
84 81 83
88 87 12
90 78 19
92 88 91
94 84 93
96 76 95
98 96 25
100 71 22
102 99 101
104 62 27
106 103 105
108 65 107
110 108 29
112 54 56
114 111 113
116 60 115
118 46 48
120 117 119
122 42 120
124 43 121
126 123 125
i0 1 x2[7]
i1 2 y1[7]
i2 2 y1[0]
i3 2 y1[2]
i4 2 y1[1]
i5 2 y1[3]
i6 2 y1[4]
i7 2 y1[5]
i8 2 y1[6]
i9 1 x2[6]
i10 1 x2[5]
i11 1 x2[4]
i12 1 x2[2]
i13 1 x2[3]
i14 1 x2[1]
i15 1 x2[0]
o0 bv[0]
c
simplified
  >=
    add
      1 x1
      invert
        1 x1
    subtract
      1 x2
      2 y1
