words_hard_train/6841.qaiger.qdimacs
p cnf 63 142
a 1 33 35 39 43 24 28 31 0
e 2 3 4 5 6 7 8 9 10 11 12 13 14 15 16 17 18 19 20 21 22 23 25 26 27 29 30 32 34 36 37 38 40 41 42 44 45 46 47 48 49 50 51 52 53 54 55 56 57 58 59 60 61 62 63 0
-1 -2 3 0
1 -3 0
2 -3 0
1 2 4 0
-1 -4 0
-2 -4 0
3 4 5 0
-3 -5 0
-4 -5 0
6 7 8 0
-6 -8 0
-7 -8 0
-8 9 10 0
8 -10 0
-9 -10 0
-10 11 12 0
10 -12 0
-11 -12 0
-12 13 14 0
12 -14 0
-13 -14 0
-14 15 16 0
14 -16 0
-15 -16 0
-16 17 18 0
16 -18 0
-17 -18 0
-5 18 19 0
5 -19 0
-18 -19 0
5 -18 20 0
-5 -20 0
18 -20 0
19 20 21 0
-19 -21 0
-20 -21 0
16 -17 22 0
-16 -22 0
17 -22 0
22 18 23 0
-22 -23 0
-18 -23 0
23 24 25 0
-23 -25 0
-24 -25 0
14 -15 26 0
-14 -26 0
15 -26 0
26 16 27 0
-26 -27 0
-16 -27 0
27 28 29 0
-27 -29 0
-28 -29 0
25 29 30 0
-25 -30 0
-29 -30 0
31 -13 32 0
-31 -32 0
13 -32 0
-33 7 34 0
33 -34 0
-7 -34 0
-35 11 36 0
35 -36 0
-11 -36 0
34 36 37 0
-34 -37 0
-36 -37 0
-37 10 38 0
37 -38 0
-10 -38 0
39 -9 40 0
-39 -40 0
9 -40 0
33 -7 41 0
-33 -41 0
7 -41 0
40 41 42 0
-40 -42 0
-41 -42 0
43 -6 44 0
-43 -44 0
6 -44 0
-39 9 45 0
39 -45 0
-9 -45 0
-44 45 46 0
44 -46 0
-45 -46 0
-42 46 47 0
42 -47 0
-46 -47 0
-38 47 48 0
38 -48 0
-47 -48 0
-48 12 49 0
48 -49 0
-12 -49 0
35 -11 50 0
-35 -50 0
11 -50 0
49 50 51 0
-49 -51 0
-50 -51 0
-31 13 52 0
31 -52 0
-13 -52 0
51 52 53 0
-51 -53 0
-52 -53 0
32 53 54 0
-32 -54 0
-53 -54 0
-54 14 55 0
54 -55 0
-14 -55 0
-27 -28 56 0
27 -56 0
28 -56 0
55 56 57 0
-55 -57 0
-56 -57 0
-30 57 58 0
30 -58 0
-57 -58 0
-23 -24 59 0
23 -59 0
24 -59 0
58 59 60 0
-58 -60 0
-59 -60 0
-21 -60 61 0
21 -61 0
60 -61 0
21 60 62 0
-21 -62 0
-60 -62 0
61 62 63 0
-61 -63 0
-62 -63 0
-63 0
